929629
14 17 42391
17 15 45489
15 8 26227
8 11 17581
11 35 5412
35 10 6355
10 1 6947
1 21 6578
21 7 17005
7 36 11794
36 6 22446
6 9 47658
9 34 90444
34 12 39715
12 33 3967
33 26 15458
26 5 32088
5 32 3290
32 20 24202
20 30 17244
30 37 941
37 39 6534
39 25 4093
25 31 7859
31 23 11949
23 38 7449
38 29 745
29 28 17517
28 13 6411
13 22 39393
22 24 45980
24 4 52566
4 19 26533
19 40 13572
40 18 18404
18 27 12606
27 2 15288
2 16 57771
16 3 71701
3 14 30026
